3	25
521	305	765	506	247	954	72	776	677	823	193	673	502	105	957	207	75	921	652	29	678	625	532	185	530	
638	214	952	864	530	867	189	676	331	704	569	834	257	301	909	203	833	309	672	230	661	972	220	632	707	
3569	3569	3569	
